data/MCDM/NO_CORR/GEN_FROM_60/18_ITEMS_1000_GEN/K5018W19.KNP.mps
NAME          BLANK   
ROWS
 N  OBJROW
 L  R0000000
COLUMNS
    C0000000  OBJROW     -500.         R0000000  16.         
    C0000001  OBJROW     -346.         R0000000  916.        
    C0000002  OBJROW     -521.         R0000000  23.         
    C0000003  OBJROW     -609.         R0000000  714.        
    C0000004  OBJROW     -449.         R0000000  912.        
    C0000005  OBJROW     -538.         R0000000  426.        
    C0000006  OBJROW     -632.         R0000000  524.        
    C0000007  OBJROW     -65.          R0000000  893.        
    C0000008  OBJROW     -185.         R0000000  725.        
    C0000009  OBJROW     -290.         R0000000  358.        
    C0000010  OBJROW     -388.         R0000000  488.        
    C0000011  OBJROW     -116.         R0000000  663.        
    C0000012  OBJROW     -783.         R0000000  234.        
    C0000013  OBJROW     -842.         R0000000  808.        
    C0000014  OBJROW     -155.         R0000000  417.        
    C0000015  OBJROW     -409.         R0000000  503.        
    C0000016  OBJROW     -737.         R0000000  21.         
    C0000017  OBJROW     -752.         R0000000  509.        
RHS
    RHS       R0000000  14458.      
BOUNDS
 BV BOUND     C0000000  1.          
 BV BOUND     C0000001  1.          
 BV BOUND     C0000002  1.          
 BV BOUND     C0000003  1.          
 BV BOUND     C0000004  1.          
 BV BOUND     C0000005  1.          
 BV BOUND     C0000006  1.          
 BV BOUND     C0000007  1.          
 BV BOUND     C0000008  1.          
 BV BOUND     C0000009  1.          
 BV BOUND     C0000010  1.          
 BV BOUND     C0000011  1.          
 BV BOUND     C0000012  1.          
 BV BOUND     C0000013  1.          
 BV BOUND     C0000014  1.          
 BV BOUND     C0000015  1.          
 BV BOUND     C0000016  1.          
 BV BOUND     C0000017  1.          
ENDATA
