data/MCDM/NO_CORR/GEN_FROM_60/18_ITEMS_1000_GEN/K5018W19.KNP.txt
N 18
M 19
LC 18
LC 19
LC 20
LC 21
LC 22
LC 23
LC 24
LC 25
LC 26
LC 27
LC 28
LC 29
LC 30
LC 31
LC 32
LC 33
LC 34
LC 35
LR 1
LR 2
LR 3
LR 4
LR 5
LR 6
LR 7
LR 8
LR 9
LR 10
LR 11
LR 12
LR 13
LR 14
LR 15
LR 16
LR 17
LR 18
LR 19
LO -500
LO -346
LO -521
LO -609
LO -449
LO -538
LO -632
LO -65
LO -185
LO -290
LO -388
LO -116
LO -783
LO -842
LO -155
LO -409
LO -737
LO -752
OS 1
IC 638
IC 290
IC 480
IC 261
IC 477
IC 420
IC 991
IC 562
IC 432
IC 58
IC 98
IC 144
IC 379
IC 64
IC 430
IC 991
IC 981
IC 852
IB 4274
